c 31 Maven
c 51 AngularJS
c 44 Server
c 36 PostgreSQL
c 57 False
c 12 Consul
c 50 MessageBroker
c 59 SearchEngine
c 1 MySql
c 33 MySQL
c 23 Client
c 34 EhCache
c 6 AuthenticationType
c 4 ServerSideOption
c 22 LibSass
c 14 HibernateCache
c 18 JWT
c 20 HTTPSession
c 55 SwaggerCodegen
c 24 SQL
c 16 ApplicationType
c 46 Angular4
c 5 Uaa
c 49 Oracle12c
c 39 MicroserviceApplication
c 28 MongoDB
c 41 NoDB
c 47 ClientFrameWork
c 45 Cucumber
c 29 Application
c 56 MariaDBDev
c 35 NoHB
c 52 H2InMemory
c 9 Gatling
c 32 Cassandra
c 11 Oauth2
c 53 SocialLogIn
c 27 H2DiskBased
c 17 ProDataBaseType
c 58 ClusteredHttpSession
c 7 MsSql
c 54 MsSQL
c 30 Oracle
c 25 DataBaseType
c 60 jhipster
c 13 ServiceDiscoveryType
c 48 MicroserviceGateway
c 37 MariaDB
c 40 Monolithic
c 43 WebSocket
c 2 DevDataBaseType
c 42 HazelCast
c 10 TestFramework
c 3 BuildTool
c 15 UaaServer
c 38 Protractor
c 26 PostgreSQLDev
c 8 Gradle
c 21 Infinispan
c 19 Eureka
p cnf 61 668
-1 2 0
-3 4 0
-5 6 0
-7 2 0
-8 3 0
-9 10 0
-11 6 0
-8 3 0
-12 13 0
-14 4 0
-15 16 0
-12 13 0
-17 4 0
-11 6 0
-18 6 0
-19 13 0
-20 6 0
-21 14 0
-5 6 0
-22 23 0
-24 25 0
-8 3 0
-26 2 0
-21 14 0
-25 4 0
-11 6 0
-27 2 0
-5 6 0
-28 25 0
-16 29 0
-30 17 0
-19 13 0
-31 3 0
-5 6 0
-32 25 0
-33 17 0
-18 6 0
-25 4 0
-34 14 0
-35 14 0
-11 6 0
-36 17 0
-37 17 0
-38 10 0
-30 17 0
-39 16 0
-40 16 0
-37 17 0
-41 25 0
-7 2 0
-5 6 0
-19 13 0
-17 4 0
-2 4 0
-42 14 0
-11 6 0
-13 4 0
-42 14 0
-31 3 0
-43 44 0
-45 10 0
-35 14 0
-18 6 0
-46 47 0
-25 4 0
-3 4 0
-42 14 0
-48 16 0
-6 4 0
-3 4 0
-24 25 0
-41 25 0
-27 2 0
-49 2 0
-50 44 0
-42 14 0
-41 25 0
-45 10 0
-51 47 0
-34 14 0
-31 3 0
-22 23 0
-52 2 0
-20 6 0
-47 23 0
-31 3 0
-31 3 0
-6 4 0
-53 44 0
-54 17 0
-5 6 0
-41 25 0
-19 13 0
-42 14 0
-18 6 0
-28 25 0
-5 6 0
-36 17 0
-55 44 0
-42 14 0
-26 2 0
-28 25 0
-26 2 0
-20 6 0
-11 6 0
-19 13 0
-46 47 0
-42 14 0
-34 14 0
-56 2 0
-28 25 0
-45 10 0
-57 13 0
-27 2 0
-14 4 0
-28 25 0
-8 3 0
-41 25 0
-19 13 0
-17 4 0
-28 25 0
-39 16 0
-45 10 0
-36 17 0
-8 3 0
-56 2 0
-5 6 0
-54 17 0
-14 4 0
-25 4 0
-49 2 0
-8 3 0
-32 25 0
-57 13 0
-7 2 0
-5 6 0
-56 2 0
-45 10 0
-14 4 0
-8 3 0
-8 3 0
-24 25 0
-50 44 0
-42 14 0
-5 6 0
-21 14 0
-55 44 0
-12 13 0
-57 13 0
-32 25 0
-34 14 0
-7 2 0
-15 16 0
-3 4 0
-20 6 0
-26 2 0
-14 4 0
-43 44 0
-36 17 0
-30 17 0
-13 4 0
-49 2 0
-58 44 0
-57 13 0
-1 2 0
-24 25 0
-21 14 0
-33 17 0
-59 44 0
-17 4 0
-49 2 0
-28 25 0
-32 25 0
-28 25 0
-8 3 0
-12 13 0
-33 17 0
-41 25 0
-12 13 0
-2 4 0
-51 47 0
-35 14 0
-20 6 0
-18 6 0
-4 44 0
-24 25 0
-6 4 0
-12 13 0
-46 47 0
-48 16 0
-31 3 0
-53 44 0
-1 2 0
-40 16 0
-2 4 0
-21 14 0
-21 14 0
-2 4 0
-26 2 0
-21 14 0
-23 60 0
-48 16 0
-10 29 0
-59 44 0
-15 16 0
-24 25 0
-20 6 0
-27 2 0
-19 13 0
-8 3 0
-20 6 0
-1 2 0
-8 3 0
-10 29 0
-25 4 0
-37 17 0
-34 14 0
-48 16 0
-9 10 0
-2 4 0
-13 4 0
-37 17 0
-27 2 0
-28 25 0
-54 17 0
-24 25 0
-17 4 0
-34 14 0
-35 14 0
-53 44 0
-52 2 0
-32 25 0
-20 6 0
-24 25 0
-10 29 0
-54 17 0
-6 4 0
-21 14 0
-37 17 0
-28 25 0
-54 17 0
-39 16 0
-39 16 0
-24 25 0
-6 4 0
-21 14 0
-58 44 0
-12 13 0
-12 13 0
-11 6 0
-57 13 0
-42 14 0
-19 13 0
-49 2 0
-11 6 0
-30 17 0
-4 44 0
-12 13 0
-49 2 0
-20 6 0
-35 14 0
-14 4 0
-41 25 0
-27 2 0
-8 3 0
-6 4 0
-37 17 0
-2 4 0
-32 25 0
-41 25 0
-3 4 0
-33 17 0
-14 4 0
-1 2 0
-24 25 0
-11 6 0
-56 2 0
-24 25 0
-32 25 0
-7 2 0
-50 44 0
-46 47 0
-1 2 0
-57 13 0
-52 2 0
-34 14 0
-54 17 0
-18 6 0
-33 17 0
-30 17 0
-41 25 0
-12 13 0
-11 6 0
-34 14 0
-11 6 0
-43 44 0
-21 14 0
-15 16 0
-20 6 0
-35 14 0
-34 14 0
-44 60 0
-36 17 0
-13 4 0
-40 16 0
-7 2 0
-1 2 0
-9 10 0
-25 4 0
-40 16 0
-45 10 0
-59 44 0
-7 2 0
-36 17 0
-49 2 0
-34 14 0
-20 6 0
-5 6 0
-19 13 0
-52 2 0
-32 25 0
-40 16 0
-20 6 0
-35 14 0
-3 4 0
-15 16 0
-48 16 0
-35 14 0
-28 25 0
-20 6 0
-18 6 0
-31 3 0
-30 17 0
-13 4 0
-56 2 0
-31 3 0
-28 25 0
-57 13 0
-57 13 0
-38 10 0
-44 60 0
-41 25 0
-57 13 0
-21 14 0
-19 13 0
-2 4 0
-9 10 0
-18 6 0
-4 44 0
-24 25 0
-29 60 0
-25 4 0
-43 44 0
-35 14 0
-3 4 0
-26 2 0
-40 16 0
-21 14 0
-55 44 0
-11 6 0
-32 25 0
-57 13 0
-42 14 0
-24 25 0
-47 23 0
-38 10 0
-42 14 0
-35 14 0
-58 44 0
-20 6 0
-28 25 0
-15 16 0
-12 13 0
-5 6 0
-11 6 0
-13 4 0
-18 6 0
-16 29 0
-31 3 0
-48 16 0
-20 6 0
-54 17 0
-16 29 0
-12 13 0
-8 3 0
-9 10 0
-27 2 0
-42 14 0
-19 13 0
-31 3 0
-40 16 0
-37 17 0
-36 17 0
-12 13 0
-18 6 0
-52 2 0
-52 2 0
-28 25 0
-32 25 0
-38 10 0
-15 16 0
-6 4 0
-19 13 0
-17 4 0
-7 2 0
-14 4 0
-31 3 0
-18 6 0
-9 10 0
-41 25 0
-58 44 0
-28 25 0
-28 25 0
-52 2 0
-9 10 0
-38 10 0
-24 25 0
-33 17 0
-35 14 0
-8 3 0
-39 16 0
-19 13 0
-1 2 0
-55 44 0
-21 14 0
-32 25 0
-29 60 0
-32 25 0
-42 14 0
-51 47 0
-37 17 0
-10 29 0
-39 16 0
-18 6 0
-52 2 0
-35 14 0
-38 10 0
-31 3 0
-31 3 0
-56 2 0
-2 4 0
-49 2 0
-34 14 0
-31 3 0
-42 14 0
-57 13 0
-56 2 0
-19 13 0
-5 6 0
-51 47 0
-23 60 0
-4 44 0
-16 29 0
-24 25 0
-15 16 0
-8 3 0
-41 25 0
-57 13 0
-25 4 0
-12 13 0
-42 14 0
-50 44 0
-34 14 0
-13 4 0
-56 2 0
-38 10 0
-39 16 0
-18 6 0
-9 10 0
-27 2 0
-18 6 0
-33 17 0
-57 13 0
-39 16 0
-11 6 0
-6 4 0
-12 13 0
-45 10 0
-21 14 0
-57 13 0
-34 14 0
-26 2 0
-48 16 0
-13 4 0
-31 3 0
-18 6 0
-17 4 0
-45 10 0
-35 14 0
-41 25 0
-26 2 0
-57 13 0
-5 6 0
-18 6 0
-11 6 0
-17 4 0
-34 14 0
-3 4 0
-57 13 0
-32 25 0
-35 14 0
-21 14 0
-38 10 0
-31 3 0
-32 25 0
-19 13 0
-34 14 0
-59 44 0
-42 14 0
-5 6 0
-40 16 0
-30 17 0
-21 14 0
-53 44 0
-30 17 0
-54 17 0
-35 14 0
-8 3 0
-35 14 0
-41 25 0
-19 13 0
-36 17 0
-12 13 0
-34 14 0
-48 16 0
-33 17 0
-41 25 0
-32 25 0
-11 6 0
-24 25 0
-32 25 0
-20 6 0
-5 6 0
-41 25 0
60 0
-23 47 0
-4 14 0
-4 3 0
-14 21 35 42 34 0
-21 -42 0
-21 -34 0
-35 -42 0
-21 -35 0
-35 -34 0
-42 -34 0
-60 44 0
-6 20 5 11 18 0
-20 -18 0
-20 -5 0
-5 -11 0
-11 -18 0
-20 -11 0
-5 -18 0
-17 33 54 30 37 36 0
-33 -37 0
-54 -30 0
-33 -30 0
-30 -36 0
-33 -36 0
-33 -54 0
-54 -36 0
-54 -37 0
-30 -37 0
-37 -36 0
-4 25 0
-4 13 0
-60 29 0
-16 48 40 39 15 0
-40 -39 0
-48 -39 0
-40 -15 0
-39 -15 0
-48 -40 0
-48 -15 0
-4 6 0
-13 12 19 57 0
-12 -19 0
-12 -57 0
-19 -57 0
-47 51 46 0
-51 -46 0
-25 24 41 32 28 0
-24 -32 0
-32 -28 0
-24 -28 0
-24 -41 0
-41 -28 0
-41 -32 0
-2 49 52 26 56 7 1 27 0
-49 -1 0
-26 -7 0
-26 -1 0
-56 -7 0
-56 -27 0
-52 -7 0
-49 -26 0
-52 -26 0
-7 -27 0
-56 -1 0
-7 -1 0
-49 -52 0
-26 -27 0
-49 -7 0
-52 -1 0
-1 -27 0
-52 -27 0
-49 -56 0
-52 -56 0
-26 -56 0
-49 -27 0
-29 16 0
61 60 0
-44 4 0
-29 10 0
-3 8 31 0
-8 -31 0
-40 -5 0
-28 48 35 0
-32 48 35 0
-41 35 0
24 -59 0
-24 -54 27 52 7 0
-48 42 0
-39 -23 0
-39 45 0
-39 9 0
-39 -38 0
-15 -23 0
-15 45 0
-15 9 0
-15 -38 0
40 48 -58 0
35 42 -58 0
40 48 -43 0
-30 0
-7 0
-24 -30 27 52 49 0
-54 0
-24 -33 27 52 1 0
-49 0
-15 5 0
39 5 -41 0
39 48 -41 0
-40 57 19 0
-24 -37 27 52 56 0
-24 17 0
-11 24 28 0
-24 -36 27 52 26 0
-32 -53 0
40 -53 0
20 18 -53 0
-48 18 5 0
-39 18 5 0
-28 -2 0
-28 -17 0
-32 -2 0
-32 -17 0
-41 -2 0
-41 -17 0
-19 5 18 0
-40 23 0
-40 45 0
-40 38 0
-40 9 0
-48 23 0
-48 45 0
-48 38 0
-48 9 0
